20 1 7
678 769 488 536 441 17 714 783 954 631 281 642 469 51 421 678 492 951 30 752 
872 597 116 790 234 430 352 870 292 265 120 969 385 959 505 177 327 570 959 632 
201 592 273 669 994 45 698 485 996 727 236 867 676 704 9 909 133 360 130 425 
976 601 745 361 911 601 889 237 171 200 868 723 791 493 743 784 537 440 268 532 
519 503 399 546 206 407 806 691 118 936 115 445 888 211 157 799 812 46 35 334 
245 255 56 35 747 798 170 283 589 437 815 107 291 565 4 497 323 810 539 792 
97 5 236 984 215 745 782 378 790 169 711 386 423 766 420 521 915 941 803 504 
3770 9690 9620 6670 8850 9660 5150 2070 7750 530 3500 8710 570 9380 2060 6240 6820 3400 10 8230 
56340
